Version identifier: 22.1.0.0 | 2022-03-09 | 1a383f8ce
CPXPARAM_Threads                                 1
CPXPARAM_MIP_Strategy_VariableSelect             3
CPXPARAM_TimeLimit                               599.99011823599994
Tried aggregator 1 time.
MIP Presolve eliminated 42 rows and 0 columns.
MIP Presolve modified 5 coefficients.
Reduced MIP has 3283 rows, 7500 columns, and 134090 nonzeros.
Reduced MIP has 7500 binaries, 0 generals, 0 SOSs, and 0 indicators.
Presolve time = 0.07 sec. (56.32 ticks)
Probing time = 0.01 sec. (9.27 ticks)
Tried aggregator 1 time.
Detecting symmetries...
Reduced MIP has 3283 rows, 7500 columns, and 134090 nonzeros.
Reduced MIP has 7500 binaries, 0 generals, 0 SOSs, and 0 indicators.
Presolve time = 0.08 sec. (71.53 ticks)
Probing time = 0.01 sec. (9.27 ticks)
Clique table members: 897.
MIP emphasis: balance optimality and feasibility.
MIP search method: dynamic search.
Parallel mode: none, using 1 thread.
Root relaxation solution time = 0.24 sec. (227.46 ticks)

        Nodes                                         Cuts/
   Node  Left     Objective  IInf  Best Integer    Best Bound    ItCnt     Gap

      0     0        0.0000   331                      0.0000     1298         
*     0+    0                            0.0000        0.0000             0.00%
      0     0        cutoff              0.0000        0.0000     1298    0.00%
Elapsed time = 1.64 sec. (1541.26 ticks, tree = 0.01 MB, solutions = 1)

Root node processing (before b&c):
  Real time             =    1.64 sec. (1541.49 ticks)
Sequential b&c:
  Real time             =    0.00 sec. (0.00 ticks)
                          ------------
Total (root+branch&cut) =    1.64 sec. (1541.49 ticks)
Primal:	300
Dual:	300
Status:	Optimal
Time:	1.71133
Sequence:
	16
	20
	13
	1
	12
	19
	4
	2
	8
	4
	2
	13
	4
	2
	8
	4
	10
	19
	20
	22
	3
	4
	8
	19
	4
	6
	12
	15
	19
	14
	4
	0
	8
	15
	23
	0
	4
	5
	8
	12
	10
	14
	23
	23
	4
	18
	12
	4
	17
	0
	4
	14
	6
	0
	12
	4
	22
	12
	4
	14
	24
	4
	2
	11
	4
	16
	10
	4
	0
	9
	14
	20
	23
	12
	10
	12
	10
	13
	2
	2
	0
	0
	12
	0
	2
	2
	12
	20
	13
	7
	23
	12
	0
	12
	14
	8
	10
	2
	13
	0
	9
	0
	21
	10
	4
	17
	16
	20
	23
	16
	6
	4
	2
	2
	4
	23
	23
	24
	16
	5
	8
	0
	2
	10
	0
	6
	23
	22
	0
	0
	20
	2
	14
	10
	20
	12
	14
	23
	8
	15
	13
	2
	4
	0
	23
	13
	24
	16
	16
	14
	0
	20
	21
	0
	23
	2
	23
	20
	23
	0
	2
	14
	20
	0
	23
	17
	2
	23
	13
	2
	20
	21
	0
	23
	8
	19
	2
	11
	0
	2
	23
	8
	0
	14
	20
	8
	0
	12
	13
	19
	15
	12
	0
	2
	23
	13
	12
	6
	15
	16
	23
	23
	2
	0
	6
	13
	2
	12
	4
	17
	16
	2
	17
	10
	20
	2
	23
	14
	23
	10
	0
	15
	22
	24
	13
	16
	23
	0
	23
	0
	23
	13
	15
	0
	6
	21
	24
	4
	0
	2
	23
	12
	2
	23
	0
	23
	0
	14
	0
	10
	2
	3
	15
	10
	16
	0
	2
	2
	7
	13
	20
	0
	12
	2
	4
	0
	2
	4
	22
	6
	20
	0
	0
	12
	8
	4
	17
	6
	4
	21
	11
	4
	0
	2
	24
	0
	4
	6
	14
	2
	20
	17
	7
	3
	4
	6
	2
	2
	7
	7
